p tw 40 241
e 0 1
e 0 2
e 0 4
e 0 5
e 0 10
e 0 12
e 0 13
e 0 14
e 0 15
e 0 20
e 0 26
e 0 30
e 0 32
e 1 7
e 1 10
e 1 11
e 1 13
e 1 18
e 1 20
e 1 22
e 1 28
e 1 29
e 1 30
e 1 33
e 1 35
e 1 37
e 2 6
e 2 7
e 2 14
e 2 15
e 2 17
e 2 21
e 2 22
e 2 23
e 2 26
e 2 27
e 2 30
e 2 31
e 2 32
e 2 33
e 2 35
e 2 36
e 2 38
e 3 4
e 3 10
e 3 12
e 3 14
e 3 18
e 3 19
e 3 20
e 3 21
e 3 22
e 3 24
e 3 25
e 3 35
e 3 36
e 4 13
e 4 16
e 4 20
e 4 22
e 4 25
e 4 26
e 4 31
e 4 32
e 4 34
e 4 36
e 5 8
e 5 15
e 5 16
e 5 21
e 5 25
e 5 28
e 5 33
e 5 36
e 5 37
e 6 11
e 6 13
e 6 18
e 6 20
e 6 21
e 6 27
e 6 33
e 6 34
e 7 19
e 7 23
e 7 24
e 7 25
e 7 27
e 7 33
e 7 36
e 8 9
e 8 10
e 8 16
e 8 23
e 8 36
e 9 14
e 9 16
e 9 17
e 9 24
e 9 25
e 9 31
e 9 32
e 9 33
e 9 37
e 9 38
e 9 39
e 10 12
e 10 17
e 10 19
e 10 20
e 10 21
e 10 23
e 10 24
e 10 26
e 10 39
e 11 14
e 11 15
e 11 17
e 11 24
e 11 26
e 11 28
e 11 29
e 11 32
e 11 36
e 12 19
e 12 26
e 12 28
e 13 19
e 13 24
e 13 25
e 13 26
e 13 30
e 13 34
e 13 38
e 14 15
e 14 17
e 14 22
e 14 25
e 14 30
e 14 35
e 14 36
e 14 39
e 15 22
e 15 24
e 15 25
e 15 26
e 15 28
e 15 30
e 15 32
e 15 33
e 15 34
e 15 39
e 16 20
e 16 21
e 16 23
e 16 25
e 16 29
e 16 31
e 16 33
e 16 35
e 16 36
e 16 37
e 17 22
e 17 23
e 17 28
e 17 33
e 17 34
e 17 35
e 18 22
e 18 23
e 18 24
e 18 25
e 18 27
e 18 33
e 18 36
e 18 37
e 18 38
e 19 23
e 19 27
e 19 32
e 19 33
e 19 37
e 19 38
e 20 25
e 20 30
e 20 33
e 20 34
e 20 35
e 20 36
e 21 22
e 21 28
e 21 34
e 21 36
e 22 23
e 22 26
e 22 29
e 22 34
e 22 35
e 22 38
e 23 24
e 23 28
e 23 30
e 23 34
e 23 36
e 23 39
e 24 28
e 24 32
e 24 33
e 24 34
e 24 37
e 25 30
e 25 32
e 25 33
e 25 37
e 25 39
e 26 28
e 26 30
e 26 39
e 27 29
e 27 35
e 28 35
e 28 37
e 29 35
e 29 36
e 29 38
e 29 39
e 30 32
e 30 35
e 30 36
e 30 39
e 31 34
e 31 35
e 31 37
e 31 38
e 31 39
e 33 35
e 34 39
e 35 37
e 35 38
e 35 39
e 36 37
